--Link1--
%chk=molecule
%NProcShared=8
#HF/6-31G* SCF=tight Test Pop=MK iop(6/33=2) iop(6/42=6) opt

remark line goes here

0   1
    N   34.2370000000       33.9080000000       23.1640000000     
    C   33.6300000000       32.7720000000       23.7300000000     
    N   34.0060000000       32.1660000000       24.8820000000     
    C   35.0970000000       32.7970000000       25.4720000000     
    C   35.7730000000       33.9180000000       24.9750000000     
    C   35.3630000000       34.5330000000       23.7830000000     
    O   35.8560000000       35.5200000000       23.2570000000     
    C   36.8220000000       34.2520000000       25.8620000000     
    C   37.7330000000       35.4120000000       25.6640000000     
    N   38.8430000000       35.3780000000       26.6290000000     
    C   36.7770000000       33.3220000000       26.8890000000     
    N   35.7130000000       32.4160000000       26.6500000000     
    N   32.5310000000       32.2550000000       23.0570000000     
    H   32.2288000000       32.6694000000       22.2166000000     
    H   32.0540000000       31.4741000000       23.4202000000     
    H   33.8791000000       34.2794000000       22.3254000000     
    H   37.1803000000       36.3184000000       25.7975000000     
    H   38.1381000000       35.3638000000       24.6748000000     
    H   38.4705000000       35.4234000000       27.5775000000     
    H   39.4588000000       36.1749000000       26.4671000000     
    H   35.4589000000       31.6540000000       27.2193000000     
    H   37.4163000000       33.2936000000       27.6987000000     


